p cnf 84 1188
1 2 3 4 5 6 7 0
8 9 10 11 12 13 14 0
15 16 17 18 19 20 21 0
22 23 24 25 26 27 28 0
29 30 31 32 33 34 35 0
36 37 38 39 40 41 42 0
43 44 45 46 47 48 49 0
50 51 52 53 54 55 56 0
57 58 59 60 61 62 63 0
64 65 66 67 68 69 70 0
71 72 73 74 75 76 77 0
78 79 80 81 82 83 84 0
-1 -2 0
-1 -3 0
-1 -4 0
-1 -5 0
-1 -6 0
-1 -7 0
-2 -3 0
-2 -4 0
-2 -5 0
-2 -6 0
-2 -7 0
-3 -4 0
-3 -5 0
-3 -6 0
-3 -7 0
-4 -5 0
-4 -6 0
-4 -7 0
-5 -6 0
-5 -7 0
-6 -7 0
-8 -9 0
-8 -10 0
-8 -11 0
-8 -12 0
-8 -13 0
-8 -14 0
-9 -10 0
-9 -11 0
-9 -12 0
-9 -13 0
-9 -14 0
-10 -11 0
-10 -12 0
-10 -13 0
-10 -14 0
-11 -12 0
-11 -13 0
-11 -14 0
-12 -13 0
-12 -14 0
-13 -14 0
-15 -16 0
-15 -17 0
-15 -18 0
-15 -19 0
-15 -20 0
-15 -21 0
-16 -17 0
-16 -18 0
-16 -19 0
-16 -20 0
-16 -21 0
-17 -18 0
-17 -19 0
-17 -20 0
-17 -21 0
-18 -19 0
-18 -20 0
-18 -21 0
-19 -20 0
-19 -21 0
-20 -21 0
-22 -23 0
-22 -24 0
-22 -25 0
-22 -26 0
-22 -27 0
-22 -28 0
-23 -24 0
-23 -25 0
-23 -26 0
-23 -27 0
-23 -28 0
-24 -25 0
-24 -26 0
-24 -27 0
-24 -28 0
-25 -26 0
-25 -27 0
-25 -28 0
-26 -27 0
-26 -28 0
-27 -28 0
-29 -30 0
-29 -31 0
-29 -32 0
-29 -33 0
-29 -34 0
-29 -35 0
-30 -31 0
-30 -32 0
-30 -33 0
-30 -34 0
-30 -35 0
-31 -32 0
-31 -33 0
-31 -34 0
-31 -35 0
-32 -33 0
-32 -34 0
-32 -35 0
-33 -34 0
-33 -35 0
-34 -35 0
-36 -37 0
-36 -38 0
-36 -39 0
-36 -40 0
-36 -41 0
-36 -42 0
-37 -38 0
-37 -39 0
-37 -40 0
-37 -41 0
-37 -42 0
-38 -39 0
-38 -40 0
-38 -41 0
-38 -42 0
-39 -40 0
-39 -41 0
-39 -42 0
-40 -41 0
-40 -42 0
-41 -42 0
-43 -44 0
-43 -45 0
-43 -46 0
-43 -47 0
-43 -48 0
-43 -49 0
-44 -45 0
-44 -46 0
-44 -47 0
-44 -48 0
-44 -49 0
-45 -46 0
-45 -47 0
-45 -48 0
-45 -49 0
-46 -47 0
-46 -48 0
-46 -49 0
-47 -48 0
-47 -49 0
-48 -49 0
-50 -51 0
-50 -52 0
-50 -53 0
-50 -54 0
-50 -55 0
-50 -56 0
-51 -52 0
-51 -53 0
-51 -54 0
-51 -55 0
-51 -56 0
-52 -53 0
-52 -54 0
-52 -55 0
-52 -56 0
-53 -54 0
-53 -55 0
-53 -56 0
-54 -55 0
-54 -56 0
-55 -56 0
-57 -58 0
-57 -59 0
-57 -60 0
-57 -61 0
-57 -62 0
-57 -63 0
-58 -59 0
-58 -60 0
-58 -61 0
-58 -62 0
-58 -63 0
-59 -60 0
-59 -61 0
-59 -62 0
-59 -63 0
-60 -61 0
-60 -62 0
-60 -63 0
-61 -62 0
-61 -63 0
-62 -63 0
-64 -65 0
-64 -66 0
-64 -67 0
-64 -68 0
-64 -69 0
-64 -70 0
-65 -66 0
-65 -67 0
-65 -68 0
-65 -69 0
-65 -70 0
-66 -67 0
-66 -68 0
-66 -69 0
-66 -70 0
-67 -68 0
-67 -69 0
-67 -70 0
-68 -69 0
-68 -70 0
-69 -70 0
-71 -72 0
-71 -73 0
-71 -74 0
-71 -75 0
-71 -76 0
-71 -77 0
-72 -73 0
-72 -74 0
-72 -75 0
-72 -76 0
-72 -77 0
-73 -74 0
-73 -75 0
-73 -76 0
-73 -77 0
-74 -75 0
-74 -76 0
-74 -77 0
-75 -76 0
-75 -77 0
-76 -77 0
-78 -79 0
-78 -80 0
-78 -81 0
-78 -82 0
-78 -83 0
-78 -84 0
-79 -80 0
-79 -81 0
-79 -82 0
-79 -83 0
-79 -84 0
-80 -81 0
-80 -82 0
-80 -83 0
-80 -84 0
-81 -82 0
-81 -83 0
-81 -84 0
-82 -83 0
-82 -84 0
-83 -84 0
-1 8 9 10 11 12 13 14 0
-2 8 9 10 11 12 13 14 0
-3 8 9 10 11 12 13 14 0
-4 8 9 10 11 12 13 14 0
-5 8 9 10 11 12 13 14 0
-6 8 9 10 11 12 13 14 0
-7 8 9 10 11 12 13 14 0
-1 16 17 18 19 20 21 0
-2 15 17 18 19 20 21 0
-3 15 16 18 19 20 21 0
-4 15 16 17 19 20 21 0
-5 15 16 17 18 20 21 0
-6 15 16 17 18 19 21 0
-7 15 16 17 18 19 20 0
-1 23 24 25 26 27 28 0
-2 22 24 25 26 27 28 0
-3 22 23 25 26 27 28 0
-4 22 23 24 26 27 28 0
-5 22 23 24 25 27 28 0
-6 22 23 24 25 26 28 0
-7 22 23 24 25 26 27 0
-1 30 31 32 33 34 35 0
-2 29 31 32 33 34 35 0
-3 29 30 32 33 34 35 0
-4 29 30 31 33 34 35 0
-5 29 30 31 32 34 35 0
-6 29 30 31 32 33 35 0
-7 29 30 31 32 33 34 0
-1 37 38 39 40 41 42 0
-2 36 38 39 40 41 42 0
-3 36 37 39 40 41 42 0
-4 36 37 38 40 41 42 0
-5 36 37 38 39 41 42 0
-6 36 37 38 39 40 42 0
-7 36 37 38 39 40 41 0
-1 44 45 46 47 48 49 0
-2 43 45 46 47 48 49 0
-3 43 44 46 47 48 49 0
-4 43 44 45 47 48 49 0
-5 43 44 45 46 48 49 0
-6 43 44 45 46 47 49 0
-7 43 44 45 46 47 48 0
-1 51 52 53 54 55 56 0
-2 50 52 53 54 55 56 0
-3 50 51 53 54 55 56 0
-4 50 51 52 54 55 56 0
-5 50 51 52 53 55 56 0
-6 50 51 52 53 54 56 0
-7 50 51 52 53 54 55 0
-1 58 59 60 61 62 63 0
-2 57 59 60 61 62 63 0
-3 57 58 60 61 62 63 0
-4 57 58 59 61 62 63 0
-5 57 58 59 60 62 63 0
-6 57 58 59 60 61 63 0
-7 57 58 59 60 61 62 0
-1 65 66 67 68 69 70 0
-2 64 66 67 68 69 70 0
-3 64 65 67 68 69 70 0
-4 64 65 66 68 69 70 0
-5 64 65 66 67 69 70 0
-6 64 65 66 67 68 70 0
-7 64 65 66 67 68 69 0
-1 72 73 74 75 76 77 0
-2 71 73 74 75 76 77 0
-3 71 72 74 75 76 77 0
-4 71 72 73 75 76 77 0
-5 71 72 73 74 76 77 0
-6 71 72 73 74 75 77 0
-7 71 72 73 74 75 76 0
-1 78 79 80 81 82 83 84 0
-2 78 79 80 81 82 83 84 0
-3 78 79 80 81 82 83 84 0
-4 78 79 80 81 82 83 84 0
-5 78 79 80 81 82 83 84 0
-6 78 79 80 81 82 83 84 0
-7 78 79 80 81 82 83 84 0
-8 1 2 3 4 5 6 7 0
-9 1 2 3 4 5 6 7 0
-10 1 2 3 4 5 6 7 0
-11 1 2 3 4 5 6 7 0
-12 1 2 3 4 5 6 7 0
-13 1 2 3 4 5 6 7 0
-14 1 2 3 4 5 6 7 0
-8 16 17 18 19 20 21 0
-9 15 17 18 19 20 21 0
-10 15 16 18 19 20 21 0
-11 15 16 17 19 20 21 0
-12 15 16 17 18 20 21 0
-13 15 16 17 18 19 21 0
-14 15 16 17 18 19 20 0
-8 22 23 24 25 26 27 28 0
-9 22 23 24 25 26 27 28 0
-10 22 23 24 25 26 27 28 0
-11 22 23 24 25 26 27 28 0
-12 22 23 24 25 26 27 28 0
-13 22 23 24 25 26 27 28 0
-14 22 23 24 25 26 27 28 0
-8 30 31 32 33 34 35 0
-9 29 31 32 33 34 35 0
-10 29 30 32 33 34 35 0
-11 29 30 31 33 34 35 0
-12 29 30 31 32 34 35 0
-13 29 30 31 32 33 35 0
-14 29 30 31 32 33 34 0
-8 37 38 39 40 41 42 0
-9 36 38 39 40 41 42 0
-10 36 37 39 40 41 42 0
-11 36 37 38 40 41 42 0
-12 36 37 38 39 41 42 0
-13 36 37 38 39 40 42 0
-14 36 37 38 39 40 41 0
-8 44 45 46 47 48 49 0
-9 43 45 46 47 48 49 0
-10 43 44 46 47 48 49 0
-11 43 44 45 47 48 49 0
-12 43 44 45 46 48 49 0
-13 43 44 45 46 47 49 0
-14 43 44 45 46 47 48 0
-8 51 52 53 54 55 56 0
-9 50 52 53 54 55 56 0
-10 50 51 53 54 55 56 0
-11 50 51 52 54 55 56 0
-12 50 51 52 53 55 56 0
-13 50 51 52 53 54 56 0
-14 50 51 52 53 54 55 0
-8 58 59 60 61 62 63 0
-9 57 59 60 61 62 63 0
-10 57 58 60 61 62 63 0
-11 57 58 59 61 62 63 0
-12 57 58 59 60 62 63 0
-13 57 58 59 60 61 63 0
-14 57 58 59 60 61 62 0
-8 65 66 67 68 69 70 0
-9 64 66 67 68 69 70 0
-10 64 65 67 68 69 70 0
-11 64 65 66 68 69 70 0
-12 64 65 66 67 69 70 0
-13 64 65 66 67 68 70 0
-14 64 65 66 67 68 69 0
-8 71 72 73 74 75 76 77 0
-9 71 72 73 74 75 76 77 0
-10 71 72 73 74 75 76 77 0
-11 71 72 73 74 75 76 77 0
-12 71 72 73 74 75 76 77 0
-13 71 72 73 74 75 76 77 0
-14 71 72 73 74 75 76 77 0
-8 78 79 80 81 82 83 84 0
-9 78 79 80 81 82 83 84 0
-10 78 79 80 81 82 83 84 0
-11 78 79 80 81 82 83 84 0
-12 78 79 80 81 82 83 84 0
-13 78 79 80 81 82 83 84 0
-14 78 79 80 81 82 83 84 0
-15 2 3 4 5 6 7 0
-16 1 3 4 5 6 7 0
-17 1 2 4 5 6 7 0
-18 1 2 3 5 6 7 0
-19 1 2 3 4 6 7 0
-20 1 2 3 4 5 7 0
-21 1 2 3 4 5 6 0
-15 9 10 11 12 13 14 0
-16 8 10 11 12 13 14 0
-17 8 9 11 12 13 14 0
-18 8 9 10 12 13 14 0
-19 8 9 10 11 13 14 0
-20 8 9 10 11 12 14 0
-21 8 9 10 11 12 13 0
-15 22 23 24 25 26 27 28 0
-16 22 23 24 25 26 27 28 0
-17 22 23 24 25 26 27 28 0
-18 22 23 24 25 26 27 28 0
-19 22 23 24 25 26 27 28 0
-20 22 23 24 25 26 27 28 0
-21 22 23 24 25 26 27 28 0
-15 30 31 32 33 34 35 0
-16 29 31 32 33 34 35 0
-17 29 30 32 33 34 35 0
-18 29 30 31 33 34 35 0
-19 29 30 31 32 34 35 0
-20 29 30 31 32 33 35 0
-21 29 30 31 32 33 34 0
-15 37 38 39 40 41 42 0
-16 36 38 39 40 41 42 0
-17 36 37 39 40 41 42 0
-18 36 37 38 40 41 42 0
-19 36 37 38 39 41 42 0
-20 36 37 38 39 40 42 0
-21 36 37 38 39 40 41 0
-15 44 45 46 47 48 49 0
-16 43 45 46 47 48 49 0
-17 43 44 46 47 48 49 0
-18 43 44 45 47 48 49 0
-19 43 44 45 46 48 49 0
-20 43 44 45 46 47 49 0
-21 43 44 45 46 47 48 0
-15 51 52 53 54 55 56 0
-16 50 52 53 54 55 56 0
-17 50 51 53 54 55 56 0
-18 50 51 52 54 55 56 0
-19 50 51 52 53 55 56 0
-20 50 51 52 53 54 56 0
-21 50 51 52 53 54 55 0
-15 58 59 60 61 62 63 0
-16 57 59 60 61 62 63 0
-17 57 58 60 61 62 63 0
-18 57 58 59 61 62 63 0
-19 57 58 59 60 62 63 0
-20 57 58 59 60 61 63 0
-21 57 58 59 60 61 62 0
-15 65 66 67 68 69 70 0
-16 64 66 67 68 69 70 0
-17 64 65 67 68 69 70 0
-18 64 65 66 68 69 70 0
-19 64 65 66 67 69 70 0
-20 64 65 66 67 68 70 0
-21 64 65 66 67 68 69 0
-15 72 73 74 75 76 77 0
-16 71 73 74 75 76 77 0
-17 71 72 74 75 76 77 0
-18 71 72 73 75 76 77 0
-19 71 72 73 74 76 77 0
-20 71 72 73 74 75 77 0
-21 71 72 73 74 75 76 0
-15 79 80 81 82 83 84 0
-16 78 80 81 82 83 84 0
-17 78 79 81 82 83 84 0
-18 78 79 80 82 83 84 0
-19 78 79 80 81 83 84 0
-20 78 79 80 81 82 84 0
-21 78 79 80 81 82 83 0
-22 2 3 4 5 6 7 0
-23 1 3 4 5 6 7 0
-24 1 2 4 5 6 7 0
-25 1 2 3 5 6 7 0
-26 1 2 3 4 6 7 0
-27 1 2 3 4 5 7 0
-28 1 2 3 4 5 6 0
-22 8 9 10 11 12 13 14 0
-23 8 9 10 11 12 13 14 0
-24 8 9 10 11 12 13 14 0
-25 8 9 10 11 12 13 14 0
-26 8 9 10 11 12 13 14 0
-27 8 9 10 11 12 13 14 0
-28 8 9 10 11 12 13 14 0
-22 15 16 17 18 19 20 21 0
-23 15 16 17 18 19 20 21 0
-24 15 16 17 18 19 20 21 0
-25 15 16 17 18 19 20 21 0
-26 15 16 17 18 19 20 21 0
-27 15 16 17 18 19 20 21 0
-28 15 16 17 18 19 20 21 0
-22 30 31 32 33 34 35 0
-23 29 31 32 33 34 35 0
-24 29 30 32 33 34 35 0
-25 29 30 31 33 34 35 0
-26 29 30 31 32 34 35 0
-27 29 30 31 32 33 35 0
-28 29 30 31 32 33 34 0
-22 37 38 39 40 41 42 0
-23 36 38 39 40 41 42 0
-24 36 37 39 40 41 42 0
-25 36 37 38 40 41 42 0
-26 36 37 38 39 41 42 0
-27 36 37 38 39 40 42 0
-28 36 37 38 39 40 41 0
-22 44 45 46 47 48 49 0
-23 43 45 46 47 48 49 0
-24 43 44 46 47 48 49 0
-25 43 44 45 47 48 49 0
-26 43 44 45 46 48 49 0
-27 43 44 45 46 47 49 0
-28 43 44 45 46 47 48 0
-22 51 52 53 54 55 56 0
-23 50 52 53 54 55 56 0
-24 50 51 53 54 55 56 0
-25 50 51 52 54 55 56 0
-26 50 51 52 53 55 56 0
-27 50 51 52 53 54 56 0
-28 50 51 52 53 54 55 0
-22 58 59 60 61 62 63 0
-23 57 59 60 61 62 63 0
-24 57 58 60 61 62 63 0
-25 57 58 59 61 62 63 0
-26 57 58 59 60 62 63 0
-27 57 58 59 60 61 63 0
-28 57 58 59 60 61 62 0
-22 65 66 67 68 69 70 0
-23 64 66 67 68 69 70 0
-24 64 65 67 68 69 70 0
-25 64 65 66 68 69 70 0
-26 64 65 66 67 69 70 0
-27 64 65 66 67 68 70 0
-28 64 65 66 67 68 69 0
-22 71 72 73 74 75 76 77 0
-23 71 72 73 74 75 76 77 0
-24 71 72 73 74 75 76 77 0
-25 71 72 73 74 75 76 77 0
-26 71 72 73 74 75 76 77 0
-27 71 72 73 74 75 76 77 0
-28 71 72 73 74 75 76 77 0
-22 78 79 80 81 82 83 84 0
-23 78 79 80 81 82 83 84 0
-24 78 79 80 81 82 83 84 0
-25 78 79 80 81 82 83 84 0
-26 78 79 80 81 82 83 84 0
-27 78 79 80 81 82 83 84 0
-28 78 79 80 81 82 83 84 0
-29 2 3 4 5 6 7 0
-30 1 3 4 5 6 7 0
-31 1 2 4 5 6 7 0
-32 1 2 3 5 6 7 0
-33 1 2 3 4 6 7 0
-34 1 2 3 4 5 7 0
-35 1 2 3 4 5 6 0
-29 9 10 11 12 13 14 0
-30 8 10 11 12 13 14 0
-31 8 9 11 12 13 14 0
-32 8 9 10 12 13 14 0
-33 8 9 10 11 13 14 0
-34 8 9 10 11 12 14 0
-35 8 9 10 11 12 13 0
-29 16 17 18 19 20 21 0
-30 15 17 18 19 20 21 0
-31 15 16 18 19 20 21 0
-32 15 16 17 19 20 21 0
-33 15 16 17 18 20 21 0
-34 15 16 17 18 19 21 0
-35 15 16 17 18 19 20 0
-29 23 24 25 26 27 28 0
-30 22 24 25 26 27 28 0
-31 22 23 25 26 27 28 0
-32 22 23 24 26 27 28 0
-33 22 23 24 25 27 28 0
-34 22 23 24 25 26 28 0
-35 22 23 24 25 26 27 0
-29 37 38 39 40 41 42 0
-30 36 38 39 40 41 42 0
-31 36 37 39 40 41 42 0
-32 36 37 38 40 41 42 0
-33 36 37 38 39 41 42 0
-34 36 37 38 39 40 42 0
-35 36 37 38 39 40 41 0
-29 44 45 46 47 48 49 0
-30 43 45 46 47 48 49 0
-31 43 44 46 47 48 49 0
-32 43 44 45 47 48 49 0
-33 43 44 45 46 48 49 0
-34 43 44 45 46 47 49 0
-35 43 44 45 46 47 48 0
-29 51 52 53 54 55 56 0
-30 50 52 53 54 55 56 0
-31 50 51 53 54 55 56 0
-32 50 51 52 54 55 56 0
-33 50 51 52 53 55 56 0
-34 50 51 52 53 54 56 0
-35 50 51 52 53 54 55 0
-29 57 58 59 60 61 62 63 0
-30 57 58 59 60 61 62 63 0
-31 57 58 59 60 61 62 63 0
-32 57 58 59 60 61 62 63 0
-33 57 58 59 60 61 62 63 0
-34 57 58 59 60 61 62 63 0
-35 57 58 59 60 61 62 63 0
-29 65 66 67 68 69 70 0
-30 64 66 67 68 69 70 0
-31 64 65 67 68 69 70 0
-32 64 65 66 68 69 70 0
-33 64 65 66 67 69 70 0
-34 64 65 66 67 68 70 0
-35 64 65 66 67 68 69 0
-29 72 73 74 75 76 77 0
-30 71 73 74 75 76 77 0
-31 71 72 74 75 76 77 0
-32 71 72 73 75 76 77 0
-33 71 72 73 74 76 77 0
-34 71 72 73 74 75 77 0
-35 71 72 73 74 75 76 0
-29 79 80 81 82 83 84 0
-30 78 80 81 82 83 84 0
-31 78 79 81 82 83 84 0
-32 78 79 80 82 83 84 0
-33 78 79 80 81 83 84 0
-34 78 79 80 81 82 84 0
-35 78 79 80 81 82 83 0
-36 2 3 4 5 6 7 0
-37 1 3 4 5 6 7 0
-38 1 2 4 5 6 7 0
-39 1 2 3 5 6 7 0
-40 1 2 3 4 6 7 0
-41 1 2 3 4 5 7 0
-42 1 2 3 4 5 6 0
-36 9 10 11 12 13 14 0
-37 8 10 11 12 13 14 0
-38 8 9 11 12 13 14 0
-39 8 9 10 12 13 14 0
-40 8 9 10 11 13 14 0
-41 8 9 10 11 12 14 0
-42 8 9 10 11 12 13 0
-36 16 17 18 19 20 21 0
-37 15 17 18 19 20 21 0
-38 15 16 18 19 20 21 0
-39 15 16 17 19 20 21 0
-40 15 16 17 18 20 21 0
-41 15 16 17 18 19 21 0
-42 15 16 17 18 19 20 0
-36 23 24 25 26 27 28 0
-37 22 24 25 26 27 28 0
-38 22 23 25 26 27 28 0
-39 22 23 24 26 27 28 0
-40 22 23 24 25 27 28 0
-41 22 23 24 25 26 28 0
-42 22 23 24 25 26 27 0
-36 30 31 32 33 34 35 0
-37 29 31 32 33 34 35 0
-38 29 30 32 33 34 35 0
-39 29 30 31 33 34 35 0
-40 29 30 31 32 34 35 0
-41 29 30 31 32 33 35 0
-42 29 30 31 32 33 34 0
-36 43 44 45 46 47 48 49 0
-37 43 44 45 46 47 48 49 0
-38 43 44 45 46 47 48 49 0
-39 43 44 45 46 47 48 49 0
-40 43 44 45 46 47 48 49 0
-41 43 44 45 46 47 48 49 0
-42 43 44 45 46 47 48 49 0
-36 50 51 52 53 54 55 56 0
-37 50 51 52 53 54 55 56 0
-38 50 51 52 53 54 55 56 0
-39 50 51 52 53 54 55 56 0
-40 50 51 52 53 54 55 56 0
-41 50 51 52 53 54 55 56 0
-42 50 51 52 53 54 55 56 0
-36 58 59 60 61 62 63 0
-37 57 59 60 61 62 63 0
-38 57 58 60 61 62 63 0
-39 57 58 59 61 62 63 0
-40 57 58 59 60 62 63 0
-41 57 58 59 60 61 63 0
-42 57 58 59 60 61 62 0
-36 65 66 67 68 69 70 0
-37 64 66 67 68 69 70 0
-38 64 65 67 68 69 70 0
-39 64 65 66 68 69 70 0
-40 64 65 66 67 69 70 0
-41 64 65 66 67 68 70 0
-42 64 65 66 67 68 69 0
-36 72 73 74 75 76 77 0
-37 71 73 74 75 76 77 0
-38 71 72 74 75 76 77 0
-39 71 72 73 75 76 77 0
-40 71 72 73 74 76 77 0
-41 71 72 73 74 75 77 0
-42 71 72 73 74 75 76 0
-36 78 79 80 81 82 83 84 0
-37 78 79 80 81 82 83 84 0
-38 78 79 80 81 82 83 84 0
-39 78 79 80 81 82 83 84 0
-40 78 79 80 81 82 83 84 0
-41 78 79 80 81 82 83 84 0
-42 78 79 80 81 82 83 84 0
-43 2 3 4 5 6 7 0
-44 1 3 4 5 6 7 0
-45 1 2 4 5 6 7 0
-46 1 2 3 5 6 7 0
-47 1 2 3 4 6 7 0
-48 1 2 3 4 5 7 0
-49 1 2 3 4 5 6 0
-43 9 10 11 12 13 14 0
-44 8 10 11 12 13 14 0
-45 8 9 11 12 13 14 0
-46 8 9 10 12 13 14 0
-47 8 9 10 11 13 14 0
-48 8 9 10 11 12 14 0
-49 8 9 10 11 12 13 0
-43 16 17 18 19 20 21 0
-44 15 17 18 19 20 21 0
-45 15 16 18 19 20 21 0
-46 15 16 17 19 20 21 0
-47 15 16 17 18 20 21 0
-48 15 16 17 18 19 21 0
-49 15 16 17 18 19 20 0
-43 23 24 25 26 27 28 0
-44 22 24 25 26 27 28 0
-45 22 23 25 26 27 28 0
-46 22 23 24 26 27 28 0
-47 22 23 24 25 27 28 0
-48 22 23 24 25 26 28 0
-49 22 23 24 25 26 27 0
-43 30 31 32 33 34 35 0
-44 29 31 32 33 34 35 0
-45 29 30 32 33 34 35 0
-46 29 30 31 33 34 35 0
-47 29 30 31 32 34 35 0
-48 29 30 31 32 33 35 0
-49 29 30 31 32 33 34 0
-43 36 37 38 39 40 41 42 0
-44 36 37 38 39 40 41 42 0
-45 36 37 38 39 40 41 42 0
-46 36 37 38 39 40 41 42 0
-47 36 37 38 39 40 41 42 0
-48 36 37 38 39 40 41 42 0
-49 36 37 38 39 40 41 42 0
-43 51 52 53 54 55 56 0
-44 50 52 53 54 55 56 0
-45 50 51 53 54 55 56 0
-46 50 51 52 54 55 56 0
-47 50 51 52 53 55 56 0
-48 50 51 52 53 54 56 0
-49 50 51 52 53 54 55 0
-43 57 58 59 60 61 62 63 0
-44 57 58 59 60 61 62 63 0
-45 57 58 59 60 61 62 63 0
-46 57 58 59 60 61 62 63 0
-47 57 58 59 60 61 62 63 0
-48 57 58 59 60 61 62 63 0
-49 57 58 59 60 61 62 63 0
-43 64 65 66 67 68 69 70 0
-44 64 65 66 67 68 69 70 0
-45 64 65 66 67 68 69 70 0
-46 64 65 66 67 68 69 70 0
-47 64 65 66 67 68 69 70 0
-48 64 65 66 67 68 69 70 0
-49 64 65 66 67 68 69 70 0
-43 71 72 73 74 75 76 77 0
-44 71 72 73 74 75 76 77 0
-45 71 72 73 74 75 76 77 0
-46 71 72 73 74 75 76 77 0
-47 71 72 73 74 75 76 77 0
-48 71 72 73 74 75 76 77 0
-49 71 72 73 74 75 76 77 0
-43 79 80 81 82 83 84 0
-44 78 80 81 82 83 84 0
-45 78 79 81 82 83 84 0
-46 78 79 80 82 83 84 0
-47 78 79 80 81 83 84 0
-48 78 79 80 81 82 84 0
-49 78 79 80 81 82 83 0
-50 2 3 4 5 6 7 0
-51 1 3 4 5 6 7 0
-52 1 2 4 5 6 7 0
-53 1 2 3 5 6 7 0
-54 1 2 3 4 6 7 0
-55 1 2 3 4 5 7 0
-56 1 2 3 4 5 6 0
-50 9 10 11 12 13 14 0
-51 8 10 11 12 13 14 0
-52 8 9 11 12 13 14 0
-53 8 9 10 12 13 14 0
-54 8 9 10 11 13 14 0
-55 8 9 10 11 12 14 0
-56 8 9 10 11 12 13 0
-50 16 17 18 19 20 21 0
-51 15 17 18 19 20 21 0
-52 15 16 18 19 20 21 0
-53 15 16 17 19 20 21 0
-54 15 16 17 18 20 21 0
-55 15 16 17 18 19 21 0
-56 15 16 17 18 19 20 0
-50 23 24 25 26 27 28 0
-51 22 24 25 26 27 28 0
-52 22 23 25 26 27 28 0
-53 22 23 24 26 27 28 0
-54 22 23 24 25 27 28 0
-55 22 23 24 25 26 28 0
-56 22 23 24 25 26 27 0
-50 30 31 32 33 34 35 0
-51 29 31 32 33 34 35 0
-52 29 30 32 33 34 35 0
-53 29 30 31 33 34 35 0
-54 29 30 31 32 34 35 0
-55 29 30 31 32 33 35 0
-56 29 30 31 32 33 34 0
-50 36 37 38 39 40 41 42 0
-51 36 37 38 39 40 41 42 0
-52 36 37 38 39 40 41 42 0
-53 36 37 38 39 40 41 42 0
-54 36 37 38 39 40 41 42 0
-55 36 37 38 39 40 41 42 0
-56 36 37 38 39 40 41 42 0
-50 44 45 46 47 48 49 0
-51 43 45 46 47 48 49 0
-52 43 44 46 47 48 49 0
-53 43 44 45 47 48 49 0
-54 43 44 45 46 48 49 0
-55 43 44 45 46 47 49 0
-56 43 44 45 46 47 48 0
-50 57 58 59 60 61 62 63 0
-51 57 58 59 60 61 62 63 0
-52 57 58 59 60 61 62 63 0
-53 57 58 59 60 61 62 63 0
-54 57 58 59 60 61 62 63 0
-55 57 58 59 60 61 62 63 0
-56 57 58 59 60 61 62 63 0
-50 64 65 66 67 68 69 70 0
-51 64 65 66 67 68 69 70 0
-52 64 65 66 67 68 69 70 0
-53 64 65 66 67 68 69 70 0
-54 64 65 66 67 68 69 70 0
-55 64 65 66 67 68 69 70 0
-56 64 65 66 67 68 69 70 0
-50 71 72 73 74 75 76 77 0
-51 71 72 73 74 75 76 77 0
-52 71 72 73 74 75 76 77 0
-53 71 72 73 74 75 76 77 0
-54 71 72 73 74 75 76 77 0
-55 71 72 73 74 75 76 77 0
-56 71 72 73 74 75 76 77 0
-50 79 80 81 82 83 84 0
-51 78 80 81 82 83 84 0
-52 78 79 81 82 83 84 0
-53 78 79 80 82 83 84 0
-54 78 79 80 81 83 84 0
-55 78 79 80 81 82 84 0
-56 78 79 80 81 82 83 0
-57 2 3 4 5 6 7 0
-58 1 3 4 5 6 7 0
-59 1 2 4 5 6 7 0
-60 1 2 3 5 6 7 0
-61 1 2 3 4 6 7 0
-62 1 2 3 4 5 7 0
-63 1 2 3 4 5 6 0
-57 9 10 11 12 13 14 0
-58 8 10 11 12 13 14 0
-59 8 9 11 12 13 14 0
-60 8 9 10 12 13 14 0
-61 8 9 10 11 13 14 0
-62 8 9 10 11 12 14 0
-63 8 9 10 11 12 13 0
-57 16 17 18 19 20 21 0
-58 15 17 18 19 20 21 0
-59 15 16 18 19 20 21 0
-60 15 16 17 19 20 21 0
-61 15 16 17 18 20 21 0
-62 15 16 17 18 19 21 0
-63 15 16 17 18 19 20 0
-57 23 24 25 26 27 28 0
-58 22 24 25 26 27 28 0
-59 22 23 25 26 27 28 0
-60 22 23 24 26 27 28 0
-61 22 23 24 25 27 28 0
-62 22 23 24 25 26 28 0
-63 22 23 24 25 26 27 0
-57 29 30 31 32 33 34 35 0
-58 29 30 31 32 33 34 35 0
-59 29 30 31 32 33 34 35 0
-60 29 30 31 32 33 34 35 0
-61 29 30 31 32 33 34 35 0
-62 29 30 31 32 33 34 35 0
-63 29 30 31 32 33 34 35 0
-57 37 38 39 40 41 42 0
-58 36 38 39 40 41 42 0
-59 36 37 39 40 41 42 0
-60 36 37 38 40 41 42 0
-61 36 37 38 39 41 42 0
-62 36 37 38 39 40 42 0
-63 36 37 38 39 40 41 0
-57 43 44 45 46 47 48 49 0
-58 43 44 45 46 47 48 49 0
-59 43 44 45 46 47 48 49 0
-60 43 44 45 46 47 48 49 0
-61 43 44 45 46 47 48 49 0
-62 43 44 45 46 47 48 49 0
-63 43 44 45 46 47 48 49 0
-57 50 51 52 53 54 55 56 0
-58 50 51 52 53 54 55 56 0
-59 50 51 52 53 54 55 56 0
-60 50 51 52 53 54 55 56 0
-61 50 51 52 53 54 55 56 0
-62 50 51 52 53 54 55 56 0
-63 50 51 52 53 54 55 56 0
-57 65 66 67 68 69 70 0
-58 64 66 67 68 69 70 0
-59 64 65 67 68 69 70 0
-60 64 65 66 68 69 70 0
-61 64 65 66 67 69 70 0
-62 64 65 66 67 68 70 0
-63 64 65 66 67 68 69 0
-57 71 72 73 74 75 76 77 0
-58 71 72 73 74 75 76 77 0
-59 71 72 73 74 75 76 77 0
-60 71 72 73 74 75 76 77 0
-61 71 72 73 74 75 76 77 0
-62 71 72 73 74 75 76 77 0
-63 71 72 73 74 75 76 77 0
-57 79 80 81 82 83 84 0
-58 78 80 81 82 83 84 0
-59 78 79 81 82 83 84 0
-60 78 79 80 82 83 84 0
-61 78 79 80 81 83 84 0
-62 78 79 80 81 82 84 0
-63 78 79 80 81 82 83 0
-64 2 3 4 5 6 7 0
-65 1 3 4 5 6 7 0
-66 1 2 4 5 6 7 0
-67 1 2 3 5 6 7 0
-68 1 2 3 4 6 7 0
-69 1 2 3 4 5 7 0
-70 1 2 3 4 5 6 0
-64 9 10 11 12 13 14 0
-65 8 10 11 12 13 14 0
-66 8 9 11 12 13 14 0
-67 8 9 10 12 13 14 0
-68 8 9 10 11 13 14 0
-69 8 9 10 11 12 14 0
-70 8 9 10 11 12 13 0
-64 16 17 18 19 20 21 0
-65 15 17 18 19 20 21 0
-66 15 16 18 19 20 21 0
-67 15 16 17 19 20 21 0
-68 15 16 17 18 20 21 0
-69 15 16 17 18 19 21 0
-70 15 16 17 18 19 20 0
-64 23 24 25 26 27 28 0
-65 22 24 25 26 27 28 0
-66 22 23 25 26 27 28 0
-67 22 23 24 26 27 28 0
-68 22 23 24 25 27 28 0
-69 22 23 24 25 26 28 0
-70 22 23 24 25 26 27 0
-64 30 31 32 33 34 35 0
-65 29 31 32 33 34 35 0
-66 29 30 32 33 34 35 0
-67 29 30 31 33 34 35 0
-68 29 30 31 32 34 35 0
-69 29 30 31 32 33 35 0
-70 29 30 31 32 33 34 0
-64 37 38 39 40 41 42 0
-65 36 38 39 40 41 42 0
-66 36 37 39 40 41 42 0
-67 36 37 38 40 41 42 0
-68 36 37 38 39 41 42 0
-69 36 37 38 39 40 42 0
-70 36 37 38 39 40 41 0
-64 43 44 45 46 47 48 49 0
-65 43 44 45 46 47 48 49 0
-66 43 44 45 46 47 48 49 0
-67 43 44 45 46 47 48 49 0
-68 43 44 45 46 47 48 49 0
-69 43 44 45 46 47 48 49 0
-70 43 44 45 46 47 48 49 0
-64 50 51 52 53 54 55 56 0
-65 50 51 52 53 54 55 56 0
-66 50 51 52 53 54 55 56 0
-67 50 51 52 53 54 55 56 0
-68 50 51 52 53 54 55 56 0
-69 50 51 52 53 54 55 56 0
-70 50 51 52 53 54 55 56 0
-64 58 59 60 61 62 63 0
-65 57 59 60 61 62 63 0
-66 57 58 60 61 62 63 0
-67 57 58 59 61 62 63 0
-68 57 58 59 60 62 63 0
-69 57 58 59 60 61 63 0
-70 57 58 59 60 61 62 0
-64 71 72 73 74 75 76 77 0
-65 71 72 73 74 75 76 77 0
-66 71 72 73 74 75 76 77 0
-67 71 72 73 74 75 76 77 0
-68 71 72 73 74 75 76 77 0
-69 71 72 73 74 75 76 77 0
-70 71 72 73 74 75 76 77 0
-64 79 80 81 82 83 84 0
-65 78 80 81 82 83 84 0
-66 78 79 81 82 83 84 0
-67 78 79 80 82 83 84 0
-68 78 79 80 81 83 84 0
-69 78 79 80 81 82 84 0
-70 78 79 80 81 82 83 0
-71 2 3 4 5 6 7 0
-72 1 3 4 5 6 7 0
-73 1 2 4 5 6 7 0
-74 1 2 3 5 6 7 0
-75 1 2 3 4 6 7 0
-76 1 2 3 4 5 7 0
-77 1 2 3 4 5 6 0
-71 8 9 10 11 12 13 14 0
-72 8 9 10 11 12 13 14 0
-73 8 9 10 11 12 13 14 0
-74 8 9 10 11 12 13 14 0
-75 8 9 10 11 12 13 14 0
-76 8 9 10 11 12 13 14 0
-77 8 9 10 11 12 13 14 0
-71 16 17 18 19 20 21 0
-72 15 17 18 19 20 21 0
-73 15 16 18 19 20 21 0
-74 15 16 17 19 20 21 0
-75 15 16 17 18 20 21 0
-76 15 16 17 18 19 21 0
-77 15 16 17 18 19 20 0
-71 22 23 24 25 26 27 28 0
-72 22 23 24 25 26 27 28 0
-73 22 23 24 25 26 27 28 0
-74 22 23 24 25 26 27 28 0
-75 22 23 24 25 26 27 28 0
-76 22 23 24 25 26 27 28 0
-77 22 23 24 25 26 27 28 0
-71 30 31 32 33 34 35 0
-72 29 31 32 33 34 35 0
-73 29 30 32 33 34 35 0
-74 29 30 31 33 34 35 0
-75 29 30 31 32 34 35 0
-76 29 30 31 32 33 35 0
-77 29 30 31 32 33 34 0
-71 37 38 39 40 41 42 0
-72 36 38 39 40 41 42 0
-73 36 37 39 40 41 42 0
-74 36 37 38 40 41 42 0
-75 36 37 38 39 41 42 0
-76 36 37 38 39 40 42 0
-77 36 37 38 39 40 41 0
-71 43 44 45 46 47 48 49 0
-72 43 44 45 46 47 48 49 0
-73 43 44 45 46 47 48 49 0
-74 43 44 45 46 47 48 49 0
-75 43 44 45 46 47 48 49 0
-76 43 44 45 46 47 48 49 0
-77 43 44 45 46 47 48 49 0
-71 50 51 52 53 54 55 56 0
-72 50 51 52 53 54 55 56 0
-73 50 51 52 53 54 55 56 0
-74 50 51 52 53 54 55 56 0
-75 50 51 52 53 54 55 56 0
-76 50 51 52 53 54 55 56 0
-77 50 51 52 53 54 55 56 0
-71 57 58 59 60 61 62 63 0
-72 57 58 59 60 61 62 63 0
-73 57 58 59 60 61 62 63 0
-74 57 58 59 60 61 62 63 0
-75 57 58 59 60 61 62 63 0
-76 57 58 59 60 61 62 63 0
-77 57 58 59 60 61 62 63 0
-71 64 65 66 67 68 69 70 0
-72 64 65 66 67 68 69 70 0
-73 64 65 66 67 68 69 70 0
-74 64 65 66 67 68 69 70 0
-75 64 65 66 67 68 69 70 0
-76 64 65 66 67 68 69 70 0
-77 64 65 66 67 68 69 70 0
-71 79 80 81 82 83 84 0
-72 78 80 81 82 83 84 0
-73 78 79 81 82 83 84 0
-74 78 79 80 82 83 84 0
-75 78 79 80 81 83 84 0
-76 78 79 80 81 82 84 0
-77 78 79 80 81 82 83 0
-78 1 2 3 4 5 6 7 0
-79 1 2 3 4 5 6 7 0
-80 1 2 3 4 5 6 7 0
-81 1 2 3 4 5 6 7 0
-82 1 2 3 4 5 6 7 0
-83 1 2 3 4 5 6 7 0
-84 1 2 3 4 5 6 7 0
-78 8 9 10 11 12 13 14 0
-79 8 9 10 11 12 13 14 0
-80 8 9 10 11 12 13 14 0
-81 8 9 10 11 12 13 14 0
-82 8 9 10 11 12 13 14 0
-83 8 9 10 11 12 13 14 0
-84 8 9 10 11 12 13 14 0
-78 16 17 18 19 20 21 0
-79 15 17 18 19 20 21 0
-80 15 16 18 19 20 21 0
-81 15 16 17 19 20 21 0
-82 15 16 17 18 20 21 0
-83 15 16 17 18 19 21 0
-84 15 16 17 18 19 20 0
-78 22 23 24 25 26 27 28 0
-79 22 23 24 25 26 27 28 0
-80 22 23 24 25 26 27 28 0
-81 22 23 24 25 26 27 28 0
-82 22 23 24 25 26 27 28 0
-83 22 23 24 25 26 27 28 0
-84 22 23 24 25 26 27 28 0
-78 30 31 32 33 34 35 0
-79 29 31 32 33 34 35 0
-80 29 30 32 33 34 35 0
-81 29 30 31 33 34 35 0
-82 29 30 31 32 34 35 0
-83 29 30 31 32 33 35 0
-84 29 30 31 32 33 34 0
-78 36 37 38 39 40 41 42 0
-79 36 37 38 39 40 41 42 0
-80 36 37 38 39 40 41 42 0
-81 36 37 38 39 40 41 42 0
-82 36 37 38 39 40 41 42 0
-83 36 37 38 39 40 41 42 0
-84 36 37 38 39 40 41 42 0
-78 44 45 46 47 48 49 0
-79 43 45 46 47 48 49 0
-80 43 44 46 47 48 49 0
-81 43 44 45 47 48 49 0
-82 43 44 45 46 48 49 0
-83 43 44 45 46 47 49 0
-84 43 44 45 46 47 48 0
-78 51 52 53 54 55 56 0
-79 50 52 53 54 55 56 0
-80 50 51 53 54 55 56 0
-81 50 51 52 54 55 56 0
-82 50 51 52 53 55 56 0
-83 50 51 52 53 54 56 0
-84 50 51 52 53 54 55 0
-78 58 59 60 61 62 63 0
-79 57 59 60 61 62 63 0
-80 57 58 60 61 62 63 0
-81 57 58 59 61 62 63 0
-82 57 58 59 60 62 63 0
-83 57 58 59 60 61 63 0
-84 57 58 59 60 61 62 0
-78 65 66 67 68 69 70 0
-79 64 66 67 68 69 70 0
-80 64 65 67 68 69 70 0
-81 64 65 66 68 69 70 0
-82 64 65 66 67 69 70 0
-83 64 65 66 67 68 70 0
-84 64 65 66 67 68 69 0
-78 72 73 74 75 76 77 0
-79 71 73 74 75 76 77 0
-80 71 72 74 75 76 77 0
-81 71 72 73 75 76 77 0
-82 71 72 73 74 76 77 0
-83 71 72 73 74 75 77 0
-84 71 72 73 74 75 76 0
